w = 28;
n = 22;
measures = [|4, 23,
|3, 23,
|5, 13,
|3, 21,
|4, 13,
|3, 17,
|3, 16,
|5, 9,
|3, 11,
|4, 8,
|3, 10,
|5, 6,
|3, 9,
|3, 8,
|3, 7,
|4, 5,
|3, 6,
|4, 4,
|3, 5,
|3, 4,
|4, 3,
|3, 3,
|];
initial_x = [0, 4, 7, 12, 15, 19, 22, 0, 5, 8, 12, 15, 20, 23, 0, 3, 7, 10, 14, 17, 20, 24];
initial_y = [0, 0, 0, 0, 0, 0, 0, 23, 23, 23, 23, 23, 23, 23, 34, 34, 34, 34, 34, 34, 34, 34];